# Solution for model Food_Bank
# Objective value = 2.4436163342033066e+06
x_1_44 1
x_1_198 1
x_1_202 1
x_1_47 1
x_1_197 0
x_1_199 0
x_1_29 1
x_1_97 0
x_1_15 0
x_1_43 0
x_1_123 0
x_1_42 0
x_1_205 0
x_1_122 1
x_1_133 1
x_1_220 0
x_1_101 1
x_1_86 0
x_1_17 0
x_1_130 1
x_1_208 0
x_1_214 1
x_1_146 0
y_44_28 0
y_44_19 0
y_44_10 0
y_44_27 0
y_44_11 1
y_44_2 0
y_44_12 0
y_44_25 0
y_44_9 0
y_44_76 0
y_198_28 1
y_198_19 0
y_198_10 0
y_198_27 0
y_198_11 0
y_198_2 0
y_198_12 0
y_198_25 0
y_198_9 0
y_198_76 0
y_202_28 0
y_202_19 0
y_202_10 0
y_202_27 0
y_202_11 0
y_202_2 1
y_202_12 0
y_202_25 0
y_202_9 0
y_202_76 0
y_47_28 0
y_47_19 0
y_47_10 1
y_47_27 0
y_47_11 0
y_47_2 0
y_47_12 0
y_47_25 0
y_47_9 0
y_47_76 0
y_197_28 0
y_197_19 0
y_197_10 0
y_197_27 0
y_197_11 0
y_197_2 0
y_197_12 0
y_197_25 0
y_197_9 0
y_197_76 0
y_199_28 0
y_199_19 0
y_199_10 0
y_199_27 0
y_199_11 0
y_199_2 0
y_199_12 0
y_199_25 0
y_199_9 0
y_199_76 0
y_29_28 0
y_29_19 0
y_29_10 0
y_29_27 0
y_29_11 0
y_29_2 0
y_29_12 0
y_29_25 0
y_29_9 1
y_29_76 0
y_97_28 0
y_97_19 0
y_97_10 0
y_97_27 0
y_97_11 0
y_97_2 0
y_97_12 0
y_97_25 0
y_97_9 0
y_97_76 0
y_15_28 0
y_15_19 0
y_15_10 0
y_15_27 0
y_15_11 0
y_15_2 0
y_15_12 0
y_15_25 0
y_15_9 0
y_15_76 0
y_43_28 0
y_43_19 0
y_43_10 0
y_43_27 0
y_43_11 0
y_43_2 0
y_43_12 0
y_43_25 0
y_43_9 0
y_43_76 0
y_123_28 0
y_123_19 0
y_123_10 0
y_123_27 0
y_123_11 0
y_123_2 0
y_123_12 0
y_123_25 0
y_123_9 0
y_123_76 0
y_42_28 0
y_42_19 0
y_42_10 0
y_42_27 0
y_42_11 0
y_42_2 0
y_42_12 0
y_42_25 0
y_42_9 0
y_42_76 0
y_205_28 0
y_205_19 0
y_205_10 0
y_205_27 0
y_205_11 0
y_205_2 0
y_205_12 0
y_205_25 0
y_205_9 0
y_205_76 0
y_122_28 0
y_122_19 1
y_122_10 0
y_122_27 0
y_122_11 0
y_122_2 0
y_122_12 0
y_122_25 0
y_122_9 0
y_122_76 0
y_133_28 0
y_133_19 0
y_133_10 0
y_133_27 0
y_133_11 0
y_133_2 0
y_133_12 1
y_133_25 0
y_133_9 0
y_133_76 0
y_220_28 0
y_220_19 0
y_220_10 0
y_220_27 0
y_220_11 0
y_220_2 0
y_220_12 0
y_220_25 0
y_220_9 0
y_220_76 0
y_101_28 0
y_101_19 0
y_101_10 0
y_101_27 0
y_101_11 0
y_101_2 0
y_101_12 0
y_101_25 1
y_101_9 0
y_101_76 0
y_86_28 0
y_86_19 0
y_86_10 0
y_86_27 0
y_86_11 0
y_86_2 0
y_86_12 0
y_86_25 0
y_86_9 0
y_86_76 0
y_17_28 0
y_17_19 0
y_17_10 0
y_17_27 0
y_17_11 0
y_17_2 0
y_17_12 0
y_17_25 0
y_17_9 0
y_17_76 0
y_130_28 0
y_130_19 0
y_130_10 0
y_130_27 1
y_130_11 0
y_130_2 0
y_130_12 0
y_130_25 0
y_130_9 0
y_130_76 0
y_208_28 0
y_208_19 0
y_208_10 0
y_208_27 0
y_208_11 0
y_208_2 0
y_208_12 0
y_208_25 0
y_208_9 0
y_208_76 0
y_214_28 0
y_214_19 0
y_214_10 0
y_214_27 0
y_214_11 0
y_214_2 0
y_214_12 0
y_214_25 0
y_214_9 0
y_214_76 1
y_146_28 0
y_146_19 0
y_146_10 0
y_146_27 0
y_146_11 0
y_146_2 0
y_146_12 0
y_146_25 0
y_146_9 0
y_146_76 0
aFP_1_44 0
aFP_1_198 8.1219712999713011e+01
aFP_1_202 6.1642983617431859e+01
aFP_1_47 1.7943315089851137e+02
aFP_1_197 0
aFP_1_199 0
aFP_1_29 2.4405868426934953e+03
aFP_1_97 0
aFP_1_15 0
aFP_1_43 0
aFP_1_123 0
aFP_1_42 0
aFP_1_205 0
aFP_1_122 1.1825601526038059e+02
aFP_1_133 1.2732422915200014e+02
aFP_1_220 0
aFP_1_101 2.4243199489807665e+02
aFP_1_86 0
aFP_1_17 0
aFP_1_130 5.7946406037882120e+01
aFP_1_208 0
aFP_1_214 0
aFP_1_146 0
aPZ_44_28 0
aPZ_198_28 8.1219712999713011e+01
aPZ_202_28 0
aPZ_47_28 0
aPZ_197_28 0
aPZ_199_28 0
aPZ_29_28 0
aPZ_97_28 0
aPZ_15_28 0
aPZ_43_28 0
aPZ_123_28 0
aPZ_42_28 0
aPZ_205_28 0
aPZ_122_28 0
aPZ_133_28 0
aPZ_220_28 0
aPZ_101_28 0
aPZ_86_28 0
aPZ_17_28 0
aPZ_130_28 0
aPZ_208_28 0
aPZ_214_28 0
aPZ_146_28 0
aPZ_44_19 0
aPZ_198_19 0
aPZ_202_19 0
aPZ_47_19 0
aPZ_197_19 0
aPZ_199_19 0
aPZ_29_19 0
aPZ_97_19 0
aPZ_15_19 0
aPZ_43_19 0
aPZ_123_19 0
aPZ_42_19 0
aPZ_205_19 0
aPZ_122_19 1.1825601526038059e+02
aPZ_133_19 0
aPZ_220_19 0
aPZ_101_19 0
aPZ_86_19 0
aPZ_17_19 0
aPZ_130_19 0
aPZ_208_19 0
aPZ_214_19 0
aPZ_146_19 0
aPZ_44_10 0
aPZ_198_10 0
aPZ_202_10 0
aPZ_47_10 1.7943315089851137e+02
aPZ_197_10 0
aPZ_199_10 0
aPZ_29_10 0
aPZ_97_10 0
aPZ_15_10 0
aPZ_43_10 0
aPZ_123_10 0
aPZ_42_10 0
aPZ_205_10 0
aPZ_122_10 0
aPZ_133_10 0
aPZ_220_10 0
aPZ_101_10 0
aPZ_86_10 0
aPZ_17_10 0
aPZ_130_10 0
aPZ_208_10 0
aPZ_214_10 0
aPZ_146_10 0
aPZ_44_27 0
aPZ_198_27 0
aPZ_202_27 0
aPZ_47_27 0
aPZ_197_27 0
aPZ_199_27 0
aPZ_29_27 0
aPZ_97_27 0
aPZ_15_27 0
aPZ_43_27 0
aPZ_123_27 0
aPZ_42_27 0
aPZ_205_27 0
aPZ_122_27 0
aPZ_133_27 0
aPZ_220_27 0
aPZ_101_27 0
aPZ_86_27 0
aPZ_17_27 0
aPZ_130_27 5.7946406037882120e+01
aPZ_208_27 0
aPZ_214_27 0
aPZ_146_27 0
aPZ_44_11 0
aPZ_198_11 0
aPZ_202_11 0
aPZ_47_11 0
aPZ_197_11 0
aPZ_199_11 0
aPZ_29_11 0
aPZ_97_11 0
aPZ_15_11 0
aPZ_43_11 0
aPZ_123_11 0
aPZ_42_11 0
aPZ_205_11 0
aPZ_122_11 0
aPZ_133_11 0
aPZ_220_11 0
aPZ_101_11 0
aPZ_86_11 0
aPZ_17_11 0
aPZ_130_11 0
aPZ_208_11 0
aPZ_214_11 0
aPZ_146_11 0
aPZ_44_2 0
aPZ_198_2 0
aPZ_202_2 6.1642983617431859e+01
aPZ_47_2 0
aPZ_197_2 0
aPZ_199_2 0
aPZ_29_2 0
aPZ_97_2 0
aPZ_15_2 0
aPZ_43_2 0
aPZ_123_2 0
aPZ_42_2 0
aPZ_205_2 0
aPZ_122_2 0
aPZ_133_2 0
aPZ_220_2 0
aPZ_101_2 0
aPZ_86_2 0
aPZ_17_2 0
aPZ_130_2 0
aPZ_208_2 0
aPZ_214_2 0
aPZ_146_2 0
aPZ_44_12 0
aPZ_198_12 0
aPZ_202_12 0
aPZ_47_12 0
aPZ_197_12 0
aPZ_199_12 0
aPZ_29_12 0
aPZ_97_12 0
aPZ_15_12 0
aPZ_43_12 0
aPZ_123_12 0
aPZ_42_12 0
aPZ_205_12 0
aPZ_122_12 0
aPZ_133_12 1.2732422915200014e+02
aPZ_220_12 0
aPZ_101_12 0
aPZ_86_12 0
aPZ_17_12 0
aPZ_130_12 0
aPZ_208_12 0
aPZ_214_12 0
aPZ_146_12 0
aPZ_44_25 0
aPZ_198_25 0
aPZ_202_25 0
aPZ_47_25 0
aPZ_197_25 0
aPZ_199_25 0
aPZ_29_25 0
aPZ_97_25 0
aPZ_15_25 0
aPZ_43_25 0
aPZ_123_25 0
aPZ_42_25 0
aPZ_205_25 0
aPZ_122_25 0
aPZ_133_25 0
aPZ_220_25 0
aPZ_101_25 2.4243199489807665e+02
aPZ_86_25 0
aPZ_17_25 0
aPZ_130_25 0
aPZ_208_25 0
aPZ_214_25 0
aPZ_146_25 0
aPZ_44_9 0
aPZ_198_9 0
aPZ_202_9 0
aPZ_47_9 0
aPZ_197_9 0
aPZ_199_9 0
aPZ_29_9 2.4405868426934953e+03
aPZ_97_9 0
aPZ_15_9 0
aPZ_43_9 0
aPZ_123_9 0
aPZ_42_9 0
aPZ_205_9 0
aPZ_122_9 0
aPZ_133_9 0
aPZ_220_9 0
aPZ_101_9 0
aPZ_86_9 0
aPZ_17_9 0
aPZ_130_9 0
aPZ_208_9 0
aPZ_214_9 0
aPZ_146_9 0
aPZ_44_76 0
aPZ_198_76 0
aPZ_202_76 0
aPZ_47_76 0
aPZ_197_76 0
aPZ_199_76 0
aPZ_29_76 0
aPZ_97_76 0
aPZ_15_76 0
aPZ_43_76 0
aPZ_123_76 0
aPZ_42_76 0
aPZ_205_76 0
aPZ_122_76 0
aPZ_133_76 0
aPZ_220_76 0
aPZ_101_76 0
aPZ_86_76 0
aPZ_17_76 0
aPZ_130_76 0
aPZ_208_76 0
aPZ_214_76 0
aPZ_146_76 0
nT_1_44 1
nT_1_198 1
nT_1_202 1
nT_1_47 1
nT_1_197 0
nT_1_199 0
nT_1_29 1
nT_1_97 0
nT_1_15 0
nT_1_43 0
nT_1_123 0
nT_1_42 0
nT_1_205 0
nT_1_122 1
nT_1_133 1
nT_1_220 0
nT_1_101 1
nT_1_86 0
nT_1_17 0
nT_1_130 1
nT_1_208 0
nT_1_214 1
nT_1_146 0
ort_1_44 4.9599999997371924e-01
ort_1_198 4.9586776859611076e-01
ort_1_202 4.9586776859611076e-01
ort_1_47 4.9586776859611076e-01
ort_1_197 0
ort_1_199 0
ort_1_29 240
ort_1_97 0
ort_1_15 0
ort_1_43 0
ort_1_123 0
ort_1_42 0
ort_1_205 0
ort_1_122 4.9586776859611076e-01
ort_1_133 4.9586776859611925e-01
ort_1_220 0
ort_1_101 4.9586776859611070e-01
ort_1_86 0
ort_1_17 0
ort_1_130 4.9586776859611925e-01
ort_1_208 0
ort_1_214 9.5199999996930273e-01
ort_1_146 0
opt_1_44 4.8933333327789796e-01
opt_1_198 3.5180678294612511e-01
opt_1_202 2.8611895274857246e-01
opt_1_47 2.7356277771785187e-01
opt_1_197 0
opt_1_199 0
opt_1_29 2.3955130399119867e+02
opt_1_97 0
opt_1_15 0
opt_1_43 0
opt_1_123 0
opt_1_42 0
opt_1_205 0
opt_1_122 0.0766216344997584
opt_1_133 6.9501557138519243e-02
opt_1_220 0
opt_1_101 2.3746168851206839e-02
opt_1_86 0
opt_1_17 0
opt_1_130 1.9637114960891822e-02
opt_1_208 0
opt_1_214 4.7199999993114261e-01
opt_1_146 0
dt_44_28 0
dt_44_19 0
dt_44_10 0
dt_44_27 0
dt_44_11 4.9599999999691136e-01
dt_44_2 0
dt_44_12 0
dt_44_25 0
dt_44_9 0
dt_44_76 0
dt_198_28 3.3242689954989979e-01
dt_198_19 0
dt_198_10 0
dt_198_27 0
dt_198_11 0
dt_198_2 0
dt_198_12 0
dt_198_25 0
dt_198_9 0
dt_198_76 0
dt_202_28 0
dt_202_19 0
dt_202_10 0
dt_202_27 0
dt_202_11 0
dt_202_2 2.8557504426610114e-01
dt_202_12 0
dt_202_25 0
dt_202_9 0
dt_202_76 0
dt_47_28 0
dt_47_19 0
dt_47_10 1.6680160281447814e-01
dt_47_27 0
dt_47_11 0
dt_47_2 0
dt_47_12 0
dt_47_25 0
dt_47_9 0
dt_47_76 0
dt_197_28 0
dt_197_19 0
dt_197_10 0
dt_197_27 0
dt_197_11 0
dt_197_2 0
dt_197_12 0
dt_197_25 0
dt_197_9 0
dt_197_76 0
dt_199_28 0
dt_199_19 0
dt_199_10 0
dt_199_27 0
dt_199_11 0
dt_199_2 0
dt_199_12 0
dt_199_25 0
dt_199_9 0
dt_199_76 0
dt_29_28 0
dt_29_19 0
dt_29_10 0
dt_29_27 0
dt_29_11 0
dt_29_2 0
dt_29_12 0
dt_29_25 0
dt_29_9 9.5820539494272339e-01
dt_29_76 0
dt_97_28 0
dt_97_19 0
dt_97_10 0
dt_97_27 0
dt_97_11 0
dt_97_2 0
dt_97_12 0
dt_97_25 0
dt_97_9 0
dt_97_76 0
dt_15_28 0
dt_15_19 0
dt_15_10 0
dt_15_27 0
dt_15_11 0
dt_15_2 0
dt_15_12 0
dt_15_25 0
dt_15_9 0
dt_15_76 0
dt_43_28 0
dt_43_19 0
dt_43_10 0
dt_43_27 0
dt_43_11 0
dt_43_2 0
dt_43_12 0
dt_43_25 0
dt_43_9 0
dt_43_76 0
dt_123_28 0
dt_123_19 0
dt_123_10 0
dt_123_27 0
dt_123_11 0
dt_123_2 0
dt_123_12 0
dt_123_25 0
dt_123_9 0
dt_123_76 0
dt_42_28 0
dt_42_19 0
dt_42_10 0
dt_42_27 0
dt_42_11 0
dt_42_2 0
dt_42_12 0
dt_42_25 0
dt_42_9 0
dt_42_76 0
dt_205_28 0
dt_205_19 0
dt_205_10 0
dt_205_27 0
dt_205_11 0
dt_205_2 0
dt_205_12 0
dt_205_25 0
dt_205_9 0
dt_205_76 0
dt_122_28 0
dt_122_19 3.2938960534113260e-01
dt_122_10 0
dt_122_27 0
dt_122_11 0
dt_122_2 0
dt_122_12 0
dt_122_25 0
dt_122_9 0
dt_122_76 0
dt_133_28 0
dt_133_19 0
dt_133_10 0
dt_133_27 0
dt_133_11 0
dt_133_2 0
dt_133_12 2.3656348020319667e-01
dt_133_25 0
dt_133_9 0
dt_133_76 0
dt_220_28 0
dt_220_19 0
dt_220_10 0
dt_220_27 0
dt_220_11 0
dt_220_2 0
dt_220_12 0
dt_220_25 0
dt_220_9 0
dt_220_76 0
dt_101_28 0
dt_101_19 0
dt_101_10 0
dt_101_27 0
dt_101_11 0
dt_101_2 0
dt_101_12 0
dt_101_25 1.3285119821432512e-01
dt_101_9 0
dt_101_76 0
dt_86_28 0
dt_86_19 0
dt_86_10 0
dt_86_27 0
dt_86_11 0
dt_86_2 0
dt_86_12 0
dt_86_25 0
dt_86_9 0
dt_86_76 0
dt_17_28 0
dt_17_19 0
dt_17_10 0
dt_17_27 0
dt_17_11 0
dt_17_2 0
dt_17_12 0
dt_17_25 0
dt_17_9 0
dt_17_76 0
dt_130_28 0
dt_130_19 0
dt_130_10 0
dt_130_27 3.7228124211325730e-01
dt_130_11 0
dt_130_2 0
dt_130_12 0
dt_130_25 0
dt_130_9 0
dt_130_76 0
dt_208_28 0
dt_208_19 0
dt_208_10 0
dt_208_27 0
dt_208_11 0
dt_208_2 0
dt_208_12 0
dt_208_25 0
dt_208_9 0
dt_208_76 0
dt_214_28 0
dt_214_19 0
dt_214_10 0
dt_214_27 0
dt_214_11 0
dt_214_2 0
dt_214_12 0
dt_214_25 0
dt_214_9 0
dt_214_76 9.5199999999385909e-01
dt_146_28 0
dt_146_19 0
dt_146_10 0
dt_146_27 0
dt_146_11 0
dt_146_2 0
dt_146_12 0
dt_146_25 0
dt_146_9 0
dt_146_76 0
ut_1_44 0
ut_1_198 2.8426899549899555e-02
ut_1_202 2.1575044266101150e-02
ut_1_47 6.2801602814478982e-02
ut_1_197 0
ut_1_199 0
ut_1_29 8.5420539494272341e-01
ut_1_97 0
ut_1_15 0
ut_1_43 0
ut_1_123 0
ut_1_42 0
ut_1_205 0
ut_1_122 4.1389605341133208e-02
ut_1_133 4.4563480203200050e-02
ut_1_220 0
ut_1_101 8.4851198214326823e-02
ut_1_86 0
ut_1_17 0
ut_1_130 2.0281242113258741e-02
ut_1_208 0
ut_1_214 0
ut_1_146 0
fFP_1_44 484
fFP_1_198 4.8399999999895113e+02
fFP_1_202 4.8399999999895113e+02
fFP_1_47 4.8399999999895113e+02
fFP_1_197 0
fFP_1_199 0
fFP_1_29 1
fFP_1_97 0
fFP_1_15 0
fFP_1_43 0
fFP_1_123 0
fFP_1_42 0
fFP_1_205 0
fFP_1_122 4.8399999999895113e+02
fFP_1_133 4.8399999999895113e+02
fFP_1_220 0
fFP_1_101 4.8399999999895113e+02
fFP_1_86 0
fFP_1_17 0
fFP_1_130 4.8399999999895113e+02
fFP_1_208 0
fFP_1_214 253
fFP_1_146 0
dt_28 3.3242689954989979e-01
dt_19 3.2938960534113260e-01
dt_10 1.6680160281447814e-01
dt_27 3.7228124211325730e-01
dt_11 4.9599999999327338e-01
dt_2 2.8557504426610120e-01
dt_12 2.3656348020319667e-01
dt_25 1.3285119821432512e-01
dt_9 9.5820539494272339e-01
dt_76 9.5199999994292739e-01
dtt_28 1.6089461938215149e+02
dtt_19 1.5942456898510818e+02
dtt_10 8.0731975762207426e+01
dtt_27 1.8018412118281654e+02
dtt_11 2.4006399999622408e+02
dtt_2 1.3821832142479298e+02
dtt_12 1.1449672441834718e+02
dtt_25 6.4299979935733361e+01
dtt_9 4.6377141115127307e+02
dtt_76 4.6076799997137834e+02
dep_cost 2.3053070327435387e+06
log_cost 1.3830930145976780e+05
z 2.4436163342033066e+06
